1111100 AB
360 381 401 421 437 453 469 486 502 518 534 557 581 604 627 651 674 697 721 744 767 791 814 837 860 884 908 932 956 973 989 1006 1023 1040 1057 1074 1091 1108 1125 1142 1166 1191 1215 1240 1265 1287 1309 1330
1111100 BA
378 399 419 444 460 476 492 509 525 541 556 579 603 626 649 673 696 719 743 766 789 813 836 859 882 906 930 954 979 996 1012 1029 1046 1063 1080 1097 1114 1131 1148 1165 1189 1214 1238 1263 1283 1305 1327 1348
0000011 AB
360 401 443 485 528 570 612 633 654 675 696 717 759 801 843 885 927 969 990 1011 1032 1053 1074 1095 1116 1158 1200 1243 1287 1330
0000011 BA
380 421 463 505 548 590 632 653 674 695 716 737 779 821 863 905 947 989 1010 1031 1052 1073 1094 1115 1136 1178 1220 1263 1306 1349
